750
[150,151,153,154,155,156,157,158,159,160,161,162,163,164,165,166,167,168,169,170,171,172,173,174,175,176,177,178,179,180,181,182,183,185,186,187,188,189,190,191,192,193,194,195,196,197,199,200,201,202,203,204,205,206,207,208,209,210,211,212,213,214,215,216,217,218,219,220,221,222,223,224,226,227,228,229,230,231,232,233,234,235,236,237,238,239,240,241,242,243,246,247,248,249,250,251,252,253,254,255,256,258,259,260,261,262,263,264,265,266,267,268,271,272,273,274,275,276,277,278,279,280,281,282,283,284,285,286,287,288,289,290,291,292,293,294,296,297,298,299,300,301,302,303,304,305,306,307,308,309,310,311,312,313,314,315,316,317,318,319,320,321,322,323,325,326,327,328,329,330,331,333,334,335,336,337,338,339,340,341,343,344,345,346,347,348,349,350,351,352,353,355,356,357,358,359,360,362,363,364,365,367,368,369,370,371,372,373,374,375,376,377,378,379,380,381,382,383,384,385,386,388,389,390,391,392,394,395,396,397,398,399,400,401,402,403,404,405,406,407,408,410,411,413,414,415,416,417,418,419,420,421,422,423,424,425,426,427,428,429,431,433,434,436,437,438,440,442,443,444,445,446,447,448,450,451,452,454,455,458,459,460,461,462,463,464,465,466,467,468,469,470,471,472,473,474,475,476,477,478,479,480,481,482,483,484,485,486,487,488,489,490,491,492,493,494,495,496,497,498,499,500,501,502,503,504,505,506,507,508,509,510,511,512,513,514,515,516,517,518,519,520,521,522,523,524,525]
[1,2,1,1,4,6,1,1,3,8,4,3,4,1,2,5,4,1,7,4,5,1,7,2,5,5,2,1,3,3,1,3,1,6,3,1,4,1,2,2,2,4,3,4,2,3,3,5,5,3,2,3,5,2,6,2,1,4,6,1,4,1,1,2,3,4,1,1,7,3,1,4,5,4,6,2,1,2,3,5,5,5,1,4,4,1,3,1,2,1,2,4,3,2,2,4,3,4,2,2,2,4,3,2,2,4,1,3,1,2,2,2,3,4,2,2,3,4,2,2,2,5,6,5,1,3,4,2,4,3,2,4,4,1,3,4,1,3,4,1,6,2,4,5,1,2,1,3,5,5,2,2,3,2,1,3,1,4,1,3,4,4,4,3,1,3,4,4,4,1,3,2,2,3,3,2,1,2,3,1,4,4,4,6,2,4,3,3,3,2,4,2,7,3,2,2,2,2,1,5,1,5,2,2,2,3,5,4,2,4,3,2,3,4,2,4,2,3,2,1,6,2,3,2,4,1,3,1,4,5,1,2,5,3,2,1,3,2,1,2,3,2,2,4,2,1,2,3,5,1,5,1,1,3,1,1,2,3,2,2,4,4,4,7,5,4,2,2,2,2,2,4,1,2,2,1,4,1,4,5,4,5,3,5,2,5,3,3,3,4,1,3,5,3,4,3,3,1,4,4,2,3,2,3,4,1,3,4,3,3,3,1,1,5,3,2,1,4,1,1,2,1,2,2,3,3,3,3,5,2,4,3,1,2,4,1,4,1,2,2,3,3,3,4,6,4,3]
